54

N     -4.615000   -4.261090   -1.327589
C     -4.075686   -3.241148   -1.212763
C     -3.385939   -1.991513   -1.059845
C     -2.035537   -2.010665   -0.677712
C     -1.312970   -0.813298   -0.523413
N      0.085059   -0.926223   -0.253075
C      1.104756   -0.370217   -1.021915
C      1.079110    0.343666   -2.236337
C      2.284042    0.811240   -2.767490
C      3.490138    0.554037   -2.129667
C      3.518694   -0.197480   -0.952445
C      2.314042   -0.680786   -0.396222
C      2.021822   -1.503723    0.731359
C      0.636962   -1.675089    0.787417
C      0.037636   -2.429610    1.818136
C      0.860276   -3.039070    2.769603
C      2.240283   -2.894306    2.714826
C      2.830127   -2.128387    1.706258
C     -1.958406    0.418360   -0.744601
N     -1.342766    1.681302   -0.487132
C     -0.733973    2.055271    0.708505
C     -0.616958    1.393599    1.946889
C      0.089164    2.017303    2.978867
C      0.641655    3.278678    2.801890
C      0.481085    3.954798    1.590063
C     -0.228379    3.345079    0.532215
C     -0.605275    3.785903   -0.770734
C     -1.325476    2.755206   -1.378457
C     -1.816014    2.887358   -2.694811
C     -1.600505    4.089619   -3.374226
C     -0.903710    5.130778   -2.775194
C     -0.399623    4.989543   -1.479928
C     -3.310325    0.430932   -1.134148
C     -4.024046   -0.767102   -1.293216
C     -5.403975   -0.699539   -1.683044
N     -6.516241   -0.622879   -2.001344
H     -1.536196   -2.973056   -0.550134
H      0.152447    0.538917   -2.764916
H      2.274313    1.383719   -3.692334
H      4.419075    0.925707   -2.554482
H      4.468906   -0.416974   -0.473962
H     -1.039770   -2.532321    1.900063
H      0.412957   -3.627216    3.568080
H      2.867113   -3.372484    3.463478
H      3.910121   -2.013815    1.675186
H     -1.057846    0.417448    2.117073
H      0.206134    1.506095    3.931827
H      1.189468    3.750267    3.613698
H      0.893519    4.952389    1.468681
H     -2.336840    2.077413   -3.195607
H     -1.976123    4.207812   -4.388385
H     -0.741893    6.059288   -3.317176
H      0.151183    5.806203   -1.021495
H     -3.833837    1.379516   -1.268058
