54

C      4.908173   -1.863905    0.407907
O      4.728702   -3.113697    0.983362
C      3.489860   -3.672610    1.281180
C      3.378140   -4.929502    1.857499
C      2.164078   -5.504814    2.161916
C      0.981006   -4.807145    1.885509
C      1.054908   -3.555297    1.312809
C      2.291023   -3.019369    1.025557
B      2.445947   -1.601011    0.374192
C      1.177448   -0.782794    0.037164
C      0.805399   -0.601490   -1.265898
C     -0.328165    0.130975   -1.540750
C     -1.128741    0.704689   -0.574416
N     -2.315277    1.449797   -0.860817
C     -2.475531    2.796308   -0.484203
C     -3.652972    3.470348   -0.768826
C     -3.811210    4.798560   -0.398288
C     -2.780290    5.424986    0.252488
C     -1.614938    4.746923    0.530169
C     -1.435604    3.441267    0.176150
O     -4.692272    2.837256   -1.426562
C     -4.564261    1.513770   -1.809259
C     -3.397225    0.799791   -1.542241
C     -3.290666   -0.519342   -1.929413
C     -4.365125   -1.107212   -2.585699
C     -5.525895   -0.438584   -2.866240
C     -5.622841    0.880071   -2.474095
C     -0.698940    0.485351    0.727779
C      0.427664   -0.240409    1.044256
C      3.866123   -1.027399    0.063345
C      4.011556    0.215722   -0.507883
C      5.299524    0.650339   -0.750811
C      6.388705   -0.145492   -0.426419
C      6.190928   -1.383581    0.144347
H      4.276758   -5.493301    2.082875
H      2.067743   -6.489955    2.613932
H      0.015036   -5.202821    2.099454
H      0.141959   -3.022059    1.101851
H      1.399723   -1.033451   -2.105502
H     -0.617385    0.273940   -2.575215
H     -4.726784    5.321011   -0.619949
H     -2.915806    6.461517    0.536587
H     -0.806586    5.252828    1.045202
H     -0.543637    2.871479    0.366302
H     -2.389217   -1.074142   -1.714501
H     -4.248088   -2.129715   -2.871298
H     -6.372442   -0.886075   -3.378576
H     -6.531881    1.458259   -2.675670
H     -1.300652    0.918605    1.524889
H      0.711435   -0.374863    2.115530
H      3.148953    0.824903   -0.755190
H      5.409066    1.634613   -1.202899
H      7.390830    0.208532   -0.622660
H      7.039136   -2.009773    0.399900
