83

O     -0.858584   -1.549673   -4.632195
S     -0.167691   -0.395921   -4.086558
C     -1.390806    0.548781   -3.205177
C     -2.161966   -0.089184   -2.227777
C     -3.102138    0.649331   -1.509599
C     -3.276669    2.018568   -1.770600
N     -4.243988    2.775294   -1.029010
C     -3.846768    3.436862    0.185957
C     -4.773240    4.176783    0.943287
C     -4.332658    4.810428    2.132511
C     -3.013369    4.721048    2.569344
C     -2.099894    3.993866    1.827824
C     -2.512730    3.361711    0.654295
C     -6.240147    4.307201    0.509475
C     -7.132275    3.721941    1.634695
C     -6.558124    5.813191    0.319038
C     -6.576029    3.575878   -0.797638
C     -5.598983    2.854240   -1.507508
C     -5.987191    2.208649   -2.706374
C     -7.293657    2.267494   -3.192866
C     -8.252146    2.976384   -2.491405
C     -7.897219    3.621631   -1.309432
C     -2.502456    2.640941   -2.763932
C     -1.558495    1.908061   -3.484006
C      0.992474   -0.971771   -2.866923
C      1.733962   -0.031964   -2.142763
C      2.620599   -0.470917   -1.159862
C      2.771720   -1.843914   -0.904848
N      3.677102   -2.292832    0.113439
C      3.185275   -2.525722    1.445981
C      4.043492   -2.975543    2.465719
C      3.509315   -3.196409    3.760221
C      2.164931   -2.977349    4.049765
C      1.319275   -2.528939    3.051325
C      1.824358   -2.306237    1.769687
C      5.535351   -3.225943    2.204848
C      5.841451   -4.711666    2.526790
C      6.353270   -2.306043    3.148515
C      5.976140   -2.947034    0.761121
C      5.062331   -2.506228   -0.213480
C      5.544304   -2.280851   -1.525560
C      6.882423   -2.475498   -1.869555
C      7.779168   -2.904144   -0.907710
C      7.330970   -3.137459    0.390071
C      2.030629   -2.774873   -1.651880
C      1.140525   -2.341781   -2.634928
O      0.565380    0.510831   -4.950508
H     -2.043972   -1.150970   -2.024691
H     -3.707939    0.166626   -0.746123
H     -5.024800    5.389729    2.740175
H     -2.705513    5.218501    3.484931
H     -1.066795    3.914246    2.154502
H     -1.759219    2.802913    0.106261
H     -6.925684    2.655178    1.785038
H     -6.973826    4.222190    2.596128
H     -8.200893    3.819582    1.414106
H     -7.604808    5.988063    0.047144
H     -5.937092    6.248716   -0.473736
H     -6.381094    6.395971    1.229411
H     -5.269960    1.640515   -3.293027
H     -7.553131    1.759045   -4.117408
H     -9.273238    3.029963   -2.858976
H     -8.675698    4.170101   -0.783272
H     -2.643433    3.699551   -2.971161
H     -0.967337    2.401989   -4.251885
H      1.631942    1.033058   -2.337872
H      3.201017    0.249107   -0.587171
H      4.147087   -3.545599    4.569734
H      1.785152   -3.155838    5.052020
H      0.268213   -2.351276    3.260781
H      1.122036   -1.952177    1.020049
H      5.270983   -5.381734    1.871368
H      6.901744   -4.956421    2.399741
H      5.590984   -4.974902    3.560205
H      7.433120   -2.460422    3.049373
H      6.153615   -1.248179    2.936621
H      6.119195   -2.477024    4.204714
H      4.877554   -1.946996   -2.316363
H      7.214511   -2.291179   -2.887538
H      8.823866   -3.059921   -1.162168
H      8.062305   -3.477266    1.120235
H      2.153737   -3.838523   -1.459872
H      0.573198   -3.073525   -3.206038
