89

C      7.636024   -0.458740    0.286109
C      6.434953   -0.164993    1.174045
C      5.769965    1.067518    0.726484
C      6.476283    2.278867    0.730468
C      5.882272    3.444680    0.323460
C      4.571622    3.487881   -0.107199
C      3.857187    2.331418   -0.124480
C      4.474624    1.148586    0.293089
N      3.707863   -0.050799    0.252801
C      2.355787    0.004798   -0.183461
C      1.998947   -0.542232   -1.385624
C      0.682137   -0.554079   -1.869725
O      0.374800   -1.119941   -3.087415
C     -0.897702   -1.167762   -3.619674
C     -1.116991   -1.764180   -4.862861
C     -2.352334   -1.852851   -5.456584
C     -3.457606   -1.315957   -4.779116
C     -3.251990   -0.725997   -3.554170
C     -2.016185   -0.656590   -3.000181
B     -1.798741    0.023539   -1.592718
C     -2.918507    0.011135   -0.546933
C     -3.630466    1.148110   -0.320363
C     -3.458914    2.461830   -0.902830
C     -4.564575    3.440694   -0.600939
C     -3.045650    2.557940   -2.344651
C     -4.646613    1.071149    0.660008
C     -4.923596   -0.067801    1.361485
C     -6.001081   -0.107326    2.391713
C     -7.060866   -1.101933    2.053136
C     -5.308223   -0.491456    3.701679
C     -4.163197   -1.184232    1.084207
C     -3.155389   -1.173917    0.136220
C     -2.403848   -2.414163   -0.087266
C     -2.673321   -3.346193    1.101081
C     -2.961747   -3.197769   -1.284974
C     -0.310137    0.011874   -1.103477
C      0.063494    0.558723    0.102577
C      1.360103    0.567762    0.574007
C      6.956718    0.000088    2.592350
C      5.557641   -1.339501    1.077211
C      4.266445   -1.309750    0.652453
C      3.430940   -2.424013    0.571867
C      3.934358   -3.646266    0.944674
C      5.237313   -3.698671    1.377094
C      6.050625   -2.603585    1.454286
H      8.555694    0.008047    0.690604
H      7.378626   -0.132050   -0.735443
H      7.808029   -1.549163    0.258154
H      7.504718    2.266973    1.063969
H      6.446999    4.378802    0.334995
H      4.090956    4.407199   -0.432256
H      2.816606    2.271022   -0.448808
H      2.718786   -1.019775   -2.074137
H     -0.262344   -2.179910   -5.386939
H     -2.502073   -2.325113   -6.433690
H     -4.453219   -1.355532   -5.192016
H     -4.080919   -0.313803   -3.005466
H     -2.562260    2.903299   -0.341775
H     -4.477327    4.266719   -1.341309
H     -5.577792    3.025520   -0.782148
H     -4.417314    3.861508    0.384102
H     -3.108441    3.635425   -2.694423
H     -1.984629    2.297902   -2.507345
H     -3.679694    2.014640   -3.046245
H     -5.248585    1.951012    0.885989
H     -6.462047    0.888500    2.444613
H     -7.388505   -0.934923    1.008522
H     -6.712355   -2.158904    2.121598
H     -7.898114   -0.993833    2.773767
H     -5.915038   -0.163177    4.560781
H     -4.269391   -0.091045    3.708040
H     -5.203204   -1.603978    3.658984
H     -4.410604   -2.079783    1.663459
H     -1.311902   -2.304731   -0.134189
H     -3.663448   -3.803421    0.917382
H     -1.944892   -4.186738    0.999969
H     -2.578240   -2.836433    2.063528
H     -3.262505   -4.240625   -0.964297
H     -2.204927   -3.342353   -2.071775
H     -3.907125   -2.751680   -1.640391
H     -0.748256    1.005113    0.698245
H      1.570196    1.033289    1.564290
H      6.140744    0.096798    3.318335
H      7.551394    0.937724    2.599944
H      7.633209   -0.832175    2.781217
H      2.411057   -2.308338    0.223888
H      3.361483   -4.550936    0.913888
H      5.679904   -4.657446    1.684381
H      7.055738   -2.662108    1.792058
