44

O     -3.797437   -2.812966    2.565895
S     -3.417530   -1.473391    2.957933
C     -2.580001   -0.713688    1.607253
C     -1.220447   -0.539245    1.930386
C     -0.394922    0.048292    0.982211
C     -0.942258    0.445013   -0.257367
N     -0.092252    1.055965   -1.247979
C      0.581263    0.197361   -2.202240
C      1.458745    0.690631   -3.182838
C      2.087988   -0.189168   -4.087208
C      1.861985   -1.561195   -4.038304
C      1.001641   -2.071067   -3.081260
C      0.373604   -1.205637   -2.180235
S      1.865117    2.402333   -3.385387
C      0.889195    3.185989   -2.132569
C      0.056178    2.497911   -1.233963
C     -0.651454    3.285430   -0.289991
C     -0.538875    4.678315   -0.240523
C      0.288300    5.333488   -1.136416
C      0.997027    4.590620   -2.075448
C     -2.316737    0.248626   -0.536391
C     -3.156190   -0.339888    0.406516
C     -1.976016   -1.566913    3.962304
C     -0.877441   -1.024388    3.269269
C      0.354414   -1.012314    3.909052
C      0.453951   -1.535880    5.207207
C     -0.668132   -2.069471    5.866260
C     -1.912037   -2.090204    5.240505
O     -4.324198   -0.506208    3.536720
H      0.662216    0.209506    1.172665
H      2.767275    0.197847   -4.845150
H      2.355608   -2.223197   -4.744471
H      0.812140   -3.140282   -3.029043
H     -0.292381   -1.664501   -1.454105
H     -1.317889    2.828576    0.436992
H     -1.101217    5.242599    0.499218
H      0.383856    6.415466   -1.108582
H      1.643988    5.119253   -2.773788
H     -2.717001    0.562270   -1.498764
H     -4.211193   -0.497590    0.208881
H      1.239587   -0.607335    3.427093
H      1.417146   -1.529506    5.714789
H     -0.560849   -2.468593    6.872925
H     -2.789464   -2.497260    5.731674
