94

N     -1.286606   -1.068336    4.556631
C     -0.688226   -0.925420    3.573539
C      0.062587   -0.741092    2.355027
C     -0.586635   -0.414926    1.144873
N     -2.008676   -0.303748    1.150811
C     -2.892754   -1.369325    1.287473
C     -2.673044   -2.750269    1.458752
C     -3.780238   -3.602043    1.492444
C     -5.068261   -3.100297    1.357405
C     -5.281786   -1.729818    1.191416
C     -4.181118   -0.847342    1.156102
C     -4.067272    0.570299    1.029093
C     -2.709745    0.892047    1.074967
C     -2.269939    2.228690    1.069544
C     -3.224642    3.242894    0.951918
C     -4.578183    2.941896    0.861872
C     -5.010882    1.613153    0.905813
C      0.166421   -0.088975   -0.015522
N     -0.501913    0.274524   -1.229059
C     -1.303143   -0.578217   -1.983670
C     -1.629913   -1.938004   -1.822630
C     -2.473023   -2.543682   -2.757712
C     -2.961291   -1.829831   -3.843107
C     -2.604624   -0.491415   -4.022688
C     -1.761728    0.145367   -3.084901
C     -1.218311    1.460104   -2.996590
C     -0.446622    1.527447   -1.833783
C      0.176801    2.728721   -1.444852
C      0.064722    3.844018   -2.278394
C     -0.668950    3.783036   -3.455186
C     -1.323201    2.603020   -3.818282
C      1.586001   -0.114354    0.043149
N      2.376800    0.166565   -1.111124
C      2.436261   -0.622047   -2.251268
C      1.859975   -1.869003   -2.551699
C      2.075835   -2.413852   -3.819602
C      2.851378   -1.750358   -4.760532
C      3.456177   -0.532022   -4.441530
C      3.254314    0.039453   -3.167061
C      3.755384    1.215095   -2.532338
C      3.233788    1.255628   -1.238578
C      3.558037    2.299805   -0.348402
C      4.421380    3.305282   -0.789054
C      4.950227    3.279345   -2.073149
C      4.628014    2.241601   -2.950871
C      2.248418   -0.483900    1.232976
C      3.681908   -0.670532    1.262720
N      4.829147   -0.835286    1.294808
C      1.473089   -0.775064    2.376867
N      2.136013   -1.081571    3.595542
C      2.193924   -2.340908    4.172246
C      1.678269   -3.581361    3.751530
C      1.910344   -4.700080    4.556036
C      2.644657   -4.595529    5.731399
C      3.158033   -3.360713    6.139834
C      2.937495   -2.214678    5.347511
C      3.332705   -0.846386    5.469250
C      2.820705   -0.155730    4.368644
C      3.018986    1.228651    4.203690
C      3.760875    1.911298    5.172633
C      4.290166    1.239498    6.268871
C      4.081576   -0.133762    6.429010
H     -1.675094   -3.162994    1.551539
H     -3.632793   -4.671422    1.626548
H     -5.919230   -3.777385    1.385876
H     -6.292951   -1.347033    1.093912
H     -1.218636    2.485046    1.147746
H     -2.899498    4.282072    0.922945
H     -5.306082    3.745393    0.768007
H     -6.072295    1.389244    0.858556
H     -1.237104   -2.523394   -0.999541
H     -2.746433   -3.587813   -2.633534
H     -3.609610   -2.315691   -4.566913
H     -2.976519    0.057149   -4.882530
H      0.734857    2.806845   -0.519242
H      0.554793    4.771409   -1.998087
H     -0.747392    4.659455   -4.091676
H     -1.909352    2.566418   -4.731462
H      1.263505   -2.408842   -1.825756
H      1.619282   -3.366517   -4.078062
H      3.006912   -2.187597   -5.743286
H      4.086274   -0.032006   -5.170697
H      3.151107    2.345261    0.656807
H      4.688277    4.117465   -0.115078
H      5.621841    4.066501   -2.402444
H      5.051805    2.223612   -3.950048
H      1.114219   -3.684625    2.831004
H      1.518969   -5.669593    4.255284
H      2.816912   -5.478372    6.343106
H      3.732392   -3.290250    7.059553
H      2.612680    1.771119    3.356336
H      3.925900    2.982833    5.069423
H      4.870021    1.784158    7.009632
H      4.496602   -0.647498    7.291899
