73

F     -0.752818   -2.596600   -1.551412
C     -0.649016   -1.502934   -0.782148
C     -0.216299   -1.639993    0.545401
N      0.140442   -2.938652    0.988724
C     -0.539986   -3.666306    1.957433
C     -1.706112   -3.376650    2.693474
C     -2.163150   -4.323026    3.614853
C     -1.494002   -5.527904    3.792102
C     -0.351904   -5.820253    3.041638
C      0.131088   -4.882357    2.103757
C      1.210102   -3.675821    0.496399
C      1.227001   -4.888385    1.188000
C      2.234351   -5.830763    0.888265
C      3.197372   -5.534646   -0.080580
C      3.173170   -4.315828   -0.747850
C      2.187123   -3.365334   -0.469548
C     -0.168715   -0.532597    1.411999
C      0.288384   -0.668151    2.770669
N      0.656481   -0.777335    3.864708
C     -0.583653    0.711991    0.903575
N     -0.525272    1.887489    1.694202
C      0.641858    2.470736    2.172210
C      1.996594    2.125358    1.996425
C      2.970068    2.918340    2.610408
C      2.613986    4.029928    3.364383
C      1.269946    4.381951    3.515010
C      0.266365    3.598670    2.905210
C     -1.630252    2.634829    2.082084
C     -1.156956    3.701607    2.848183
C     -2.084552    4.619835    3.385861
C     -3.451618    4.443436    3.153967
C     -3.904863    3.366683    2.401285
C     -3.007601    2.443054    1.858122
C     -1.041428    0.839150   -0.416560
F     -1.353990    2.056302   -0.885055
C     -1.069928   -0.265195   -1.267763
N     -1.520817   -0.131447   -2.609493
C     -2.697793    0.507638   -3.005556
C     -3.734366    1.111129   -2.262824
C     -4.821713    1.665167   -2.944719
C     -4.895770    1.609823   -4.329505
C     -3.883598    0.988075   -5.063682
C     -2.774571    0.420582   -4.397661
C     -0.855749   -0.619003   -3.736689
C     -1.622975   -0.283118   -4.854676
C     -1.169791   -0.657179   -6.139308
C      0.041446   -1.337410   -6.281793
C      0.808431   -1.640533   -5.165539
C      0.381226   -1.281248   -3.883887
H     -2.250754   -2.446803    2.564822
H     -3.054552   -4.112628    4.201945
H     -1.862408   -6.251610    4.514999
H      0.157855   -6.769672    3.179246
H      2.265041   -6.783608    1.409305
H      3.971877   -6.262924   -0.308465
H      3.933485   -4.097580   -1.494581
H      2.191288   -2.414944   -0.992206
H      2.298819    1.267719    1.404043
H      4.020963    2.660768    2.497142
H      3.384489    4.634193    3.836884
H      1.002132    5.259266    4.097054
H     -1.739980    5.461044    3.980822
H     -4.163071    5.152542    3.570116
H     -4.972358    3.239472    2.235158
H     -3.380825    1.602473    1.283166
H     -3.708446    1.158828   -1.180066
H     -5.619507    2.144460   -2.381750
H     -5.747152    2.045127   -4.846531
H     -3.954864    0.937434   -6.146634
H     -1.758475   -0.412052   -7.018962
H      0.385958   -1.623196   -7.272391
H      1.754393   -2.163256   -5.288208
H      1.006176   -1.520688   -3.031007
