103

C     -0.280196    1.083545    5.664765
C     -0.074000    0.941177    4.211851
C      0.882047    0.047520    3.694033
C      1.072672   -0.102743    2.316016
C      0.315151    0.657276    1.421457
N      0.516945    0.518465    0.017629
C      0.677974    1.577703   -0.878563
C      0.849778    1.033465   -2.157853
C      1.045388    1.906378   -3.269692
N      1.197977    1.456286   -4.634288
C      0.069058    0.873688   -5.321142
C     -1.251020    1.216753   -4.977916
C     -2.343231    0.631834   -5.628088
C     -2.137697   -0.313647   -6.628936
C     -0.841310   -0.675508   -6.982226
C      0.248882   -0.089571   -6.333544
C      2.474469    1.649404   -5.277619
C      3.672122    1.446405   -4.568586
C      4.913720    1.628420   -5.182537
C      4.981106    2.031551   -6.513165
C      3.807644    2.251352   -7.230638
C      2.564912    2.063018   -6.618143
C      1.113710    3.296109   -3.022360
C      0.976592    3.814475   -1.742412
C      0.758397    2.968670   -0.656934
C      0.623364   -0.691662   -0.664262
C      0.837078   -0.392204   -2.009340
C      1.003320   -1.462951   -2.915881
C      0.914832   -2.805638   -2.509777
N      1.075342   -3.874873   -3.469110
C      2.007085   -3.719453   -4.562239
C      1.650127   -4.071484   -5.875754
C      2.541518   -3.887475   -6.936756
C      3.805758   -3.353399   -6.701488
C      4.181766   -3.005914   -5.406496
C      3.290870   -3.188471   -4.345664
C      0.245386   -5.054072   -3.399274
C      0.775323   -6.322979   -3.696147
C     -0.024039   -7.467998   -3.642672
C     -1.366740   -7.363834   -3.286268
C     -1.913039   -6.117843   -2.992444
C     -1.114266   -4.972351   -3.050365
C      0.657163   -3.063374   -1.160178
C      0.498779   -2.027498   -0.229443
C     -0.634821    1.558737    1.907272
C     -0.828517    1.689471    3.287727
N      0.739561    0.777250    6.466268
C      0.505970    0.926987    7.770108
C      1.611872    0.630269    8.706169
C      2.898219    0.287838    8.243196
C      3.946208    0.013204    9.126976
C      3.733236    0.071543   10.500359
C      2.474008    0.404612   10.989734
C      1.428385    0.681741   10.102266
N     -0.657224    1.326918    8.285716
C     -1.617949    1.598192    7.400375
C     -2.938282    2.014642    7.920383
C     -4.031802    2.236852    7.059949
C     -5.284703    2.618397    7.549818
C     -5.474730    2.791407    8.916888
C     -4.413403    2.585512    9.792557
C     -3.161254    2.203574    9.298846
N     -1.474098    1.504940    6.078387
H      1.490263   -0.549692    4.372749
H      1.842537   -0.786365    1.967001
H     -1.448372    1.948243   -4.198083
H     -3.354557    0.913628   -5.345652
H     -2.986521   -0.773620   -7.127551
H     -0.672736   -1.425389   -7.750392
H      1.248980   -0.423483   -6.602705
H      3.644437    1.119985   -3.532049
H      5.825584    1.456722   -4.617605
H      5.946381    2.178258   -6.990469
H      3.854621    2.571925   -8.267948
H      1.662557    2.264776   -7.190893
H      1.277685    3.976651   -3.855887
H      1.049312    4.887957   -1.584686
H      0.685102    3.390889    0.341393
H      1.191180   -1.235933   -3.958105
H      0.658406   -4.464603   -6.084099
H      2.243684   -4.156245   -7.946580
H      4.497071   -3.204703   -7.526707
H      5.167175   -2.588931   -5.219111
H      3.606261   -2.917225   -3.340620
H      1.825029   -6.428987   -3.957256
H      0.403724   -8.439124   -3.876897
H     -1.987491   -8.254287   -3.240280
H     -2.961567   -6.031050   -2.721937
H     -1.567318   -4.007182   -2.839085
H      0.583506   -4.089781   -0.806547
H      0.273799   -2.270505    0.804645
H     -1.261062    2.138230    1.232886
H     -1.582472    2.390409    3.645544
H      3.097300    0.238623    7.174350
H      4.927437   -0.247999    8.740507
H      4.545615   -0.144375   11.189888
H      2.300256    0.451972   12.062230
H      0.454017    0.940237   10.515537
H     -3.915360    2.104150    5.985734
H     -6.111581    2.775430    6.862490
H     -6.448603    3.082722    9.301652
H     -4.554963    2.718519   10.862689
H     -2.350916    2.047075   10.009830
