55

O      4.875053    0.205410    2.831153
C      3.831077    0.243375    2.187510
C      3.350509    1.521789    1.627135
C      2.162312    1.588031    0.889747
C      1.766530    2.848958    0.384663
C      2.531389    3.994327    0.610520
C      3.708004    3.908510    1.344956
C      4.117112    2.676878    1.852015
C      1.286118    0.335925    0.618451
C     -0.096685    0.590337    1.264951
C     -1.271098    0.626488    0.492672
N     -1.228749    0.427396   -0.932056
C     -2.450048    0.471817   -1.685021
C     -2.908955    1.685693   -2.218664
C     -4.096348    1.726856   -2.950229
C     -4.831393    0.558447   -3.153045
C     -4.382712   -0.653023   -2.626148
C     -3.195805   -0.698237   -1.894032
C     -2.493174    0.864856    1.163368
C     -2.557116    1.060643    2.544777
C     -1.396879    1.023766    3.299221
C     -0.179257    0.791279    2.667757
C      1.230615    0.133818   -0.914816
C      0.013514    0.184654   -1.616992
C      0.052421   -0.010683   -3.017153
C      1.246525   -0.247589   -3.701775
C      2.441396   -0.296376   -3.004208
C      2.435203   -0.107943   -1.625856
C      1.854683   -0.968721    1.237902
C      3.048395   -0.989099    1.969051
C      3.531563   -2.189636    2.514707
C      2.830930   -3.380910    2.337577
C      1.644010   -3.380775    1.614801
C      1.160241   -2.190000    1.070823
H      0.848408    2.944605   -0.194433
H      2.205738    4.951913    0.211675
H      4.307825    4.797059    1.524107
H      5.040278    2.618483    2.426375
H     -2.336697    2.596133   -2.060914
H     -4.447781    2.669481   -3.361607
H     -5.756519    0.592103   -3.723341
H     -4.956942   -1.561972   -2.785387
H     -2.846681   -1.642193   -1.483762
H     -3.432398    0.903441    0.616778
H     -3.516000    1.241169    3.023277
H     -1.435442    1.174831    4.374638
H      0.719043    0.766907    3.282612
H     -0.858050    0.018016   -3.610962
H      1.234773   -0.392819   -4.778706
H      3.376090   -0.480048   -3.527123
H      3.387533   -0.150888   -1.099731
H      4.460673   -2.198601    3.082342
H      3.212635   -4.305151    2.763581
H      1.091763   -4.306432    1.472392
H      0.227204   -2.218332    0.508606
