82

C      3.371518    2.390673    0.602355
C      2.215368    1.590333    0.142321
C      0.999119    1.579003    0.855565
C     -0.099044    0.827207    0.422743
C     -0.011153    0.059014   -0.744044
N     -1.143662   -0.711851   -1.193006
C     -2.073449   -0.063900   -2.115299
C     -3.263489   -0.668660   -2.571963
C     -4.107554    0.028313   -3.475752
C     -3.798348    1.306683   -3.928039
C     -2.640288    1.917505   -3.485476
C     -1.798211    1.244480   -2.596038
Si    -3.755659   -2.330349   -2.005000
C     -3.979892   -3.421309   -3.490970
C     -5.230839   -3.555231   -4.126783
C     -5.391423   -4.373760   -5.249042
C     -4.304534   -5.070824   -5.767356
C     -3.055443   -4.945655   -5.167821
C     -2.893532   -4.128455   -4.044792
C     -5.288539   -2.254150   -0.959575
C     -6.100530   -3.389731   -0.762405
C     -7.253245   -3.331640    0.026872
C     -7.617115   -2.139762    0.644863
C     -6.826989   -1.007229    0.477844
C     -5.674435   -1.063433   -0.312127
C     -2.372902   -2.910719   -0.967616
C     -1.272475   -2.074947   -0.683273
C     -0.253771   -2.621071    0.142992
C     -0.310886   -3.918674    0.658888
C     -1.395741   -4.724135    0.368707
C     -2.415736   -4.225747   -0.434846
C      1.187848    0.051554   -1.467799
C      2.280711    0.807601   -1.028406
N      4.456957    2.416197   -0.171519
C      5.469430    3.155047    0.283894
C      6.698103    3.224154   -0.536449
C      6.793670    2.566817   -1.779358
C      7.955249    2.633697   -2.556502
C      9.052891    3.361819   -2.108187
C      8.990359    4.022113   -0.885156
C      7.827275    3.952644   -0.110888
N      5.449724    3.836695    1.429648
C      4.321050    3.747489    2.133579
C      4.246702    4.486362    3.412495
C      3.104128    4.424400    4.234857
C      3.033139    5.122497    5.445330
C      4.106745    5.901173    5.865001
C      5.249104    5.983153    5.075524
C      5.316112    5.284629    3.865249
N      3.254379    3.039593    1.761124
H      0.894574    2.166170    1.766681
H     -1.024208    0.839686    0.993570
H     -5.030906   -0.425187   -3.838016
H     -4.461299    1.819114   -4.619635
H     -2.381922    2.916411   -3.826321
H     -0.904843    1.781065   -2.287203
H     -6.106674   -3.020661   -3.758304
H     -6.367699   -4.461804   -5.719333
H     -4.428470   -5.704865   -6.641124
H     -2.200823   -5.480063   -5.575365
H     -1.895619   -4.050440   -3.612138
H     -5.848036   -4.344542   -1.223456
H     -7.864370   -4.220777    0.159046
H     -8.512174   -2.093838    1.259159
H     -7.103374   -0.075450    0.964670
H     -5.079480   -0.154789   -0.407267
H      0.626146   -2.040938    0.408987
H      0.495728   -4.289129    1.285549
H     -1.453333   -5.733867    0.765330
H     -3.258633   -4.884493   -0.646488
H      1.268362   -0.542754   -2.374609
H      3.197032    0.779023   -1.616145
H      5.951010    1.990068   -2.157943
H      7.998373    2.116923   -3.512116
H      9.955272    3.415434   -2.711645
H      9.844681    4.592752   -0.529579
H      7.808387    4.480209    0.841720
H      2.248141    3.821623    3.935061
H      2.138326    5.053650    6.058574
H      4.052841    6.443414    6.805463
H      6.091262    6.590244    5.397456
H      6.224433    5.367987    3.270407
