93

N     -2.704118    0.471756    2.960896
C     -1.836109    0.361563    2.199470
C     -0.766948    0.233616    1.235289
C      0.103937    1.325713    0.990467
N      0.007253    2.485018    1.818983
C     -0.376892    3.749743    1.387812
C     -0.830457    4.210300    0.136454
C     -1.127593    5.567962   -0.008206
C     -1.001375    6.442577    1.063612
C     -0.586816    5.974576    2.313380
C     -0.279498    4.607636    2.484928
C      0.271129    2.508276    3.187258
C      0.122751    3.830041    3.612149
C      0.366082    4.143765    4.967128
C      0.759280    3.139187    5.855302
C      0.916436    1.831837    5.412469
C      0.681525    1.494001    4.077337
C      0.975126    1.300015   -0.122041
N      1.906381    2.343072   -0.406433
C      2.914174    2.781702    0.445563
C      3.346201    2.311658    1.700124
C      4.375780    2.993900    2.354131
C      4.987241    4.093333    1.765546
C      4.594397    4.523088    0.494976
C      3.553931    3.851715   -0.183619
C      1.982265    3.030157   -1.617197
C      2.976892    4.000606   -1.479759
C      3.231767    4.876755   -2.557036
C      2.486643    4.768747   -3.734218
C      1.490508    3.807716   -3.850046
C      1.216718    2.930912   -2.797025
C      1.001654    0.181964   -0.967763
C      0.194746   -0.931364   -0.695436
N      0.380878   -2.080189   -1.521697
C      0.790457   -3.333407   -1.077621
C      1.196714   -3.786534    0.191637
C      1.522901   -5.135706    0.349690
C      1.477205   -6.009659   -0.728576
C      1.126479   -5.545500   -1.998837
C      0.792943   -4.185895   -2.183187
C      0.251000   -2.092386   -2.909499
C      0.463162   -3.406587   -3.332107
C      0.343452   -3.711635   -4.705564
C      0.011251   -2.705555   -5.616735
C     -0.209826   -1.406074   -5.178464
C     -0.102486   -1.079091   -3.823938
C     -0.688997   -0.913794    0.407204
N     -1.600858   -1.991195    0.627075
C     -1.658306   -2.767301    1.782909
C     -0.901335   -2.731911    2.972222
C     -1.164447   -3.683432    3.961304
C     -2.142116   -4.652377    3.775160
C     -2.880973   -4.693442    2.589778
C     -2.636665   -3.742211    1.575379
C     -2.574758   -2.408363   -0.274085
C     -3.206898   -3.519900    0.285759
C     -4.227937   -4.164903   -0.445354
C     -4.603943   -3.674098   -1.698555
C     -3.989055   -2.544799   -2.223515
C     -2.976386   -1.888032   -1.519763
H     -0.949844    3.541908   -0.709432
H     -1.461645    5.942922   -0.973172
H     -1.235904    7.496053    0.934626
H     -0.508857    6.660626    3.151666
H      0.247409    5.163739    5.321853
H      0.943218    3.385195    6.898226
H      1.224963    1.060756    6.115107
H      0.826041    0.469793    3.750280
H      2.896786    1.443050    2.168462
H      4.701384    2.657056    3.335823
H      5.785450    4.614792    2.287815
H      5.095450    5.367585    0.030425
H      4.005924    5.634373   -2.473629
H      2.686655    5.446440   -4.560322
H      0.910161    3.742992   -4.767786
H      0.415357    2.207414   -2.895936
H      1.721523    0.141486   -1.787553
H      1.258677   -3.116065    1.041137
H      1.813612   -5.504523    1.330576
H      1.733804   -7.056756   -0.589318
H      1.122306   -6.229690   -2.842447
H      0.510513   -4.726572   -5.055271
H     -0.078861   -2.945998   -6.673079
H     -0.479069   -0.635424   -5.897258
H     -0.309675   -0.065538   -3.499136
H     -0.121444   -1.995357    3.132262
H     -0.597251   -3.664820    4.889155
H     -2.337285   -5.383692    4.555333
H     -3.642720   -5.455801    2.452040
H     -4.729418   -5.035873   -0.033537
H     -5.390916   -4.173153   -2.258179
H     -4.298433   -2.165062   -3.194530
H     -2.520192   -0.998204   -1.940214
