104

O      3.981765    4.895914    0.130746
C      3.185727    3.966067    0.012984
C      2.166547    3.759161    1.077984
C      1.755289    4.876317    1.819803
C      0.796266    4.744000    2.826627
C      0.234189    3.489249    3.090998
N     -0.772024    3.358155    4.091513
C     -1.984816    2.684697    3.925415
C     -2.554666    2.043481    2.804146
C     -3.836199    1.492643    2.917801
C     -4.550356    1.590692    4.112149
N     -5.880708    1.080071    4.192244
C     -6.969778    1.758873    4.745774
C     -7.087675    3.057178    5.290686
C     -8.335395    3.486192    5.753327
C     -9.449509    2.661832    5.662367
C     -9.340245    1.391143    5.091272
C     -8.090960    0.935233    4.613219
C     -6.303062   -0.163412    3.717362
C     -7.674467   -0.264903    3.967189
C     -8.358227   -1.439994    3.584528
C     -7.657366   -2.494802    2.994786
C     -6.287322   -2.396113    2.788887
C     -5.589438   -1.238986    3.148476
C     -3.981172    2.233070    5.223668
C     -2.692678    2.802966    5.123894
C     -0.707974    3.895097    5.377351
C     -1.890273    3.548130    6.035615
C     -2.081705    3.960318    7.373514
C     -1.086134    4.691040    8.024191
C      0.097232    5.004281    7.366725
C      0.309181    4.608621    6.042351
C      0.657435    2.365435    2.371240
C      1.641275    2.497716    1.384478
C      3.283033    3.094391   -1.189355
C      2.171394    2.446157   -1.742709
C      2.323173    1.606819   -2.852838
C      3.582981    1.449285   -3.439521
N      3.750470    0.581550   -4.557525
C      3.264684   -0.724761   -4.645042
C      2.525146   -1.513108   -3.738256
C      2.234211   -2.840851   -4.071722
C      2.688108   -3.388223   -5.271588
N      2.443331   -4.764223   -5.562416
C      3.398045   -5.670725   -6.030530
C      4.777292   -5.527401   -6.298567
C      5.500955   -6.643270   -6.728751
C      4.885848   -7.878949   -6.872660
C      3.529328   -8.029032   -6.576422
C      2.775362   -6.918037   -6.135691
C      1.223572   -5.422386   -5.387718
C      1.415667   -6.763320   -5.730725
C      0.330681   -7.664189   -5.629594
C     -0.923613   -7.200971   -5.226800
C     -1.110912   -5.856510   -4.932088
C     -0.051829   -4.947404   -5.014616
C      3.428587   -2.604845   -6.167524
C      3.730146   -1.261592   -5.847850
C      4.460039    0.893835   -5.716087
C      4.468147   -0.245254   -6.523067
C      5.139483   -0.203096   -7.764809
C      5.760535    0.977917   -8.180415
C      5.709003    2.115941   -7.384945
C      5.055352    2.097652   -6.150202
C      4.687879    2.139195   -2.924457
C      4.536685    2.954147   -1.800911
H      2.173661    5.859109    1.605942
H      0.469358    5.634004    3.359256
H     -2.038621    2.007610    1.846825
H     -4.287691    1.046726    2.032462
H     -6.239099    3.735436    5.344008
H     -8.435744    4.482381    6.183028
H    -10.414401    3.007684    6.024861
H    -10.222329    0.762310    5.004488
H     -9.425419   -1.535631    3.763201
H     -8.185127   -3.402003    2.711291
H     -5.747256   -3.232688    2.352545
H     -4.513459   -1.196886    3.007593
H     -4.509966    2.295424    6.171597
H     -2.997716    3.707168    7.901211
H     -1.234323    5.004352    9.055747
H      0.871215    5.561209    7.889724
H      1.254600    4.838714    5.558979
H      0.268331    1.374066    2.598262
H      1.991649    1.600003    0.880355
H      1.175305    2.590978   -1.333642
H      1.442624    1.123318   -3.271828
H      2.213100   -1.129017   -2.770780
H      1.705920   -3.453071   -3.341477
H      5.290981   -4.580747   -6.156498
H      6.562986   -6.542672   -6.942884
H      5.460781   -8.738335   -7.206969
H      3.061136   -9.005746   -6.667910
H      0.464811   -8.713733   -5.878265
H     -1.759433   -7.894233   -5.156354
H     -2.097845   -5.500949   -4.644322
H     -0.227864   -3.895730   -4.810386
H      3.764664   -3.008362   -7.118143
H      5.164715   -1.081651   -8.404360
H      6.274298    1.009310   -9.138229
H      6.179780    3.035849   -7.727373
H      5.006132    3.004722   -5.554107
H      5.681716    2.019737   -3.353900
H      5.402805    3.476543   -1.396463
