111

O      3.097001    0.977137   -0.608711
C      2.537516    0.002093   -0.130207
C      3.274112   -1.269975    0.078846
C      4.349897   -1.563125   -0.757511
C      5.005049   -2.768028   -0.578122
N      4.659446   -3.670796    0.369649
C      3.636201   -3.347235    1.186164
C      2.913074   -2.171414    1.082010
C      1.092308    0.062269    0.168257
C      0.244654   -0.797715   -0.545409
C     -1.130584   -0.808789   -0.276382
N     -2.000774   -1.645286   -1.039359
C     -1.736373   -2.964839   -1.403301
C     -0.681872   -3.837023   -1.073258
C     -0.681593   -5.141407   -1.588616
C     -1.712562   -5.618768   -2.405513
C     -1.711346   -7.044547   -2.986368
C     -1.963282   -7.006434   -4.511191
C     -2.832532   -7.852077   -2.305609
C     -0.378919   -7.801863   -2.769153
C     -2.790427   -4.741967   -2.664347
C     -2.815828   -3.415588   -2.163985
C     -3.239206   -1.263415   -1.554921
C     -3.764753   -2.352457   -2.248749
C     -5.028540   -2.224051   -2.876089
C     -5.757658   -1.019599   -2.818413
C     -7.152406   -0.862936   -3.455469
C     -7.203331    0.389549   -4.363731
C     -7.577973   -2.061131   -4.330949
C     -8.199170   -0.710787   -2.335887
C     -5.177161    0.056700   -2.135546
C     -3.919044   -0.034562   -1.529015
C     -1.653217    0.027607    0.719288
C     -0.816362    0.896259    1.422033
C      0.552649    0.922905    1.128226
N      1.352708    1.833279    1.850226
C      1.724717    1.665446    3.175574
C      1.605416    0.565814    4.035380
C      2.064251    0.704209    5.350371
C      2.634705    1.891635    5.833600
C      3.080034    1.984459    7.302680
C      1.856847    1.777236    8.218213
C      3.695342    3.346098    7.678614
C      4.135214    0.903984    7.613424
C      2.753126    2.967438    4.932882
C      2.296233    2.861847    3.597392
C      1.641931    3.121834    1.430855
C      2.234710    3.780604    2.503218
C      2.609658    5.134715    2.341995
C      2.397456    5.820025    1.124933
C      2.808056    7.297630    0.993761
C      2.475835    7.922775   -0.382008
C      2.075296    8.139692    2.057562
C      4.331005    7.421509    1.201447
C      1.805774    5.106200    0.072749
C      1.415065    3.766401    0.205331
H      4.660004   -0.881812   -1.537504
H      5.841764   -3.056791   -1.207585
H      3.409134   -4.086620    1.952111
H      2.116870   -1.969757    1.786561
H      0.660694   -1.406775   -1.346076
H      0.125913   -3.536544   -0.413548
H      0.165009   -5.771153   -1.320681
H     -2.967974   -6.633041   -4.754499
H     -1.233786   -6.360778   -5.019356
H     -1.880730   -8.008782   -4.947886
H     -2.682347   -7.886451   -1.221299
H     -3.820438   -7.412691   -2.489303
H     -2.860325   -8.882645   -2.679785
H     -0.172173   -7.962435   -1.704623
H     -0.412428   -8.791805   -3.238793
H      0.471065   -7.259860   -3.201683
H     -3.639236   -5.071862   -3.258483
H     -5.413743   -3.090497   -3.401479
H     -6.416883    0.357513   -5.126151
H     -8.167442    0.464692   -4.882300
H     -7.083930    1.320946   -3.800886
H     -6.868642   -2.227395   -5.146153
H     -7.644775   -2.988018   -3.749234
H     -8.564216   -1.895824   -4.781464
H     -8.203393   -1.589104   -1.674468
H     -9.208210   -0.598542   -2.747041
H     -8.006475    0.166122   -1.708544
H     -5.699308    1.009950   -2.066158
H     -3.500483    0.843003   -1.050363
H     -2.711885    0.003641    0.970964
H     -1.240193    1.551307    2.183400
H      1.154478   -0.364514    3.708661
H      1.961622   -0.157070    6.005936
H      2.124124    1.915126    9.271880
H      1.433965    0.771690    8.123993
H      1.062269    2.493414    7.988391
H      3.999602    3.368901    8.731084
H      2.980903    4.162188    7.537617
H      4.584927    3.564252    7.084370
H      5.008486    1.008500    6.963841
H      4.483309    0.973979    8.650061
H      3.748664   -0.109445    7.473938
H      3.175068    3.918518    5.242680
H      3.062322    5.647117    3.185882
H      2.775808    8.978602   -0.422359
H      1.398518    7.889627   -0.590267
H      2.998076    7.403759   -1.192920
H      2.318605    9.202173    1.952068
H      0.987202    8.033452    1.967235
H      2.352723    7.850673    3.077858
H      4.627708    7.137540    2.215921
H      4.668997    8.453166    1.047667
H      4.878749    6.781877    0.500190
H      1.618115    5.570485   -0.892408
H      0.977495    3.234548   -0.634642
