52

C     -1.427560   -1.020739    4.342650
C     -1.240403   -1.778060    3.002258
C     -2.169290   -1.142870    1.958096
C     -3.568944   -1.121962    2.182448
C     -4.453557   -0.558723    1.266199
C     -3.960513   -0.001270    0.100338
C     -2.586038   -0.010683   -0.140147
C     -1.664079   -0.575610    0.773893
N     -0.251100   -0.570030    0.499799
C      0.231409    0.030385   -0.710836
C      0.571001    1.392837   -0.736280
C      1.040284    1.977122   -1.913412
O      1.349262    3.313874   -1.851130
C      1.814359    3.925735   -2.988997
C      2.117352    5.284617   -2.885799
C      2.596026    5.981331   -3.997973
C      2.772974    5.321921   -5.215487
C      2.471464    3.964029   -5.323160
C      1.992685    3.272129   -4.206373
C      1.667184    1.841145   -4.291882
O      1.802653    1.212041   -5.333177
C      1.170428    1.201522   -3.064462
C      0.836089   -0.156383   -3.053952
C      0.366880   -0.740475   -1.876928
C     -1.651611   -3.263206    3.177918
C      0.247931   -1.732807    2.628918
C      0.686044   -1.149177    1.426091
C      2.075395   -1.148354    1.153474
C      3.006142   -1.701543    2.033699
C      2.571956   -2.273350    3.215899
C      1.210620   -2.288445    3.508860
H     -1.142073    0.033975    4.241290
H     -2.464454   -1.045652    4.695161
H     -0.822647   -1.446266    5.150758
H     -3.990537   -1.551990    3.088564
H     -5.521571   -0.558291    1.465863
H     -4.636765    0.441305   -0.625789
H     -2.247883    0.437880   -1.070384
H      0.466140    1.989621    0.166431
H      1.981328    5.802893   -1.939878
H      2.831342    7.039929   -3.914989
H      3.145680    5.865268   -6.080685
H      2.608736    3.448444   -6.271228
H      0.939891   -0.756236   -3.955506
H      0.104681   -1.796022   -1.860434
H     -2.696976   -3.373644    3.486161
H     -1.526965   -3.819009    2.239970
H     -1.055434   -3.774275    3.941710
H      2.465419   -0.712459    0.237627
H      4.064530   -1.682323    1.788961
H      3.285972   -2.707831    3.910109
H      0.903720   -2.746461    4.446807
